peakDumbCharging = 22200; 
Machine = anon_enum(16); 
machineSpeed = [3700,3700,3700,3700,3700,3700,3700,3700,3700,3700,3700,3700,3700,3700,3700,3700]; 
machineLoad = [3700,3700,3700,3700,3700,3700,3700,3700,3700,3700,3700,3700,3700,3700,3700,3700]; 
Car = anon_enum(23); 
demandCar = [16880,8520,5920,6840,6200,3040,6720,240,11120,2680,4040,7920,7640,4040,5960,12760,2840,3160,6320,26920,31360,30760,31360]; 
arrivalCar = [71,70,69,69,68,68,66,66,65,65,65,65,62,61,60,60,54,47,45,43,33,30,29]; 
departureCar = [77,73,72,72,71,70,71,72,69,68,67,70,66,63,65,65,57,49,50,59,59,59,59]; 
